set VV := 0 1 2 3 4 5 6 7 8 9 10 11 12 13 14 15 16 17 18 19 20 21 22 23 24 25 26 27 28 29 30 31 32 33 34 35 36 37 38 39 ;
set VS := 0 1 2 3 4 5 6 7 8 9 10 11 12 13 14 15 16 17 18 19 20 21 22 23 24 25 26 27 28 29 30 31 32 33 34 35 36 37 38 39 40 41 42 43 44 45 46 47 48 49 50 51 52 53 54 55 56 57 58 59 60 61 62 63 64 65 66 67 68 69 70 71 72 73 74 75 76 77 78 79 80 81 82 83 ;
param cv := 
0 15
1 15
2 13
3 16
4 25
5 16
6 13
7 10
8 10
9 12
10 10
11 14
12 22
13 19
14 17
15 13
16 21
17 19
18 11
19 17
20 10
21 13
22 25
23 24
24 11
25 18
26 13
27 16
28 12
29 19
30 23
31 18
32 10
33 12
34 22
35 24
36 15
37 25
38 18
39 17
;
param cs := 
0 24
1 40
2 24
3 26
4 37
5 31
6 22
7 39
8 28
9 29
10 38
11 38
12 38
13 21
14 34
15 29
16 22
17 26
18 37
19 30
20 23
21 35
22 23
23 31
24 40
25 31
26 38
27 40
28 22
29 30
30 37
31 22
32 25
33 29
34 27
35 38
36 31
37 23
38 35
39 27
40 38
41 40
42 29
43 22
44 30
45 26
46 24
47 28
48 34
49 23
50 38
51 29
52 32
53 38
54 36
55 40
56 27
57 31
58 37
59 32
60 38
61 30
62 28
63 33
64 32
65 37
66 22
67 40
68 31
69 33
70 32
71 20
72 29
73 27
74 25
75 22
76 24
77 39
78 27
79 29
80 36
81 32
82 22
83 26
;
param bv:	 0 1 2 3 4 5 6 7 8 9 10 11 12 13 14 15 16 17 18 19 20 21 22 23 24 25 26 27 28 29 30 31 32 33 34 35 36 37 38 39 := 
		0 0 0 16 0 14 0 11 0 0 0 24 0 0 0 25 22 0 0 0 0 0 0 0 0 0 10 20 0 0 0 0 17 0 0 0 0 0 0 0 0 
		1 0 0 0 0 0 0 0 0 0 0 0 19 0 10 0 0 0 12 0 0 0 0 0 0 0 0 0 0 0 0 0 0 20 0 0 13 0 0 0 0 
		2 0 0 0 0 0 0 0 0 0 0 22 0 20 0 0 0 18 11 0 0 0 0 0 0 0 23 0 0 0 0 0 0 0 0 0 0 0 12 22 0 
		3 0 0 0 0 0 0 0 0 0 0 0 0 0 0 0 0 0 0 0 0 20 0 14 0 0 0 0 0 25 0 0 0 18 0 0 0 0 0 0 0 
		4 0 0 0 0 0 0 23 0 0 0 0 0 0 0 0 0 0 0 0 0 23 19 0 0 0 0 0 0 0 0 0 13 0 0 0 13 0 0 23 0 
		5 0 0 0 0 0 0 11 0 0 0 0 10 0 0 0 0 0 0 0 0 0 0 0 23 0 0 0 0 0 0 0 0 0 0 0 0 0 0 0 0 
		6 0 0 0 0 0 0 0 0 0 0 0 16 0 0 0 13 0 0 0 0 22 0 0 0 12 0 0 15 0 0 0 0 0 0 0 0 0 0 0 0 
		7 0 0 0 0 0 0 0 0 0 0 0 0 0 22 0 0 0 0 0 0 0 0 0 0 21 0 0 0 0 0 0 0 0 0 11 0 0 0 0 0 
		8 0 0 0 0 0 0 0 0 0 13 0 0 0 0 0 0 0 0 0 0 0 0 0 0 0 0 0 0 0 0 0 0 0 0 0 0 0 0 0 0 
		9 0 0 0 0 0 0 0 0 0 0 0 15 0 0 0 0 0 0 17 0 0 0 0 0 0 0 0 0 0 0 0 0 0 0 0 17 0 14 0 0 
		10 0 0 0 0 0 0 0 0 0 0 0 0 0 0 0 0 0 12 0 0 0 0 0 0 0 25 0 16 0 0 0 0 0 0 0 0 0 0 0 0 
		11 0 0 0 0 0 0 0 0 0 0 0 0 0 0 0 0 0 0 0 0 0 0 15 0 0 0 0 0 0 0 0 0 0 0 0 0 0 22 19 0 
		12 0 0 0 0 0 0 0 0 0 0 0 0 0 0 0 0 0 0 0 0 0 0 0 0 0 0 22 0 0 0 0 0 0 0 0 0 0 13 0 0 
		13 0 0 0 0 0 0 0 0 0 0 0 0 0 0 0 0 0 0 0 0 0 0 0 20 0 0 0 0 22 0 0 25 22 0 0 0 0 0 0 0 
		14 0 0 0 0 0 0 0 0 0 0 0 0 0 0 0 0 0 0 0 0 0 0 16 25 0 17 0 0 0 0 0 0 0 0 0 0 25 0 0 25 
		15 0 0 0 0 0 0 0 0 0 0 0 0 0 0 0 0 0 0 0 0 23 0 0 0 11 0 0 0 0 0 0 0 0 0 0 10 0 0 0 0 
		16 0 0 0 0 0 0 0 0 0 0 0 0 0 0 0 0 0 0 0 0 0 0 0 0 12 0 23 0 0 0 0 0 21 0 0 0 0 0 22 0 
		17 0 0 0 0 0 0 0 0 0 0 0 0 0 0 0 0 0 0 0 0 0 0 0 0 0 0 0 0 0 0 0 0 0 0 0 0 0 0 0 0 
		18 0 0 0 0 0 0 0 0 0 0 0 0 0 0 0 0 0 0 0 0 0 0 0 0 0 0 0 0 0 0 22 18 0 0 0 0 0 0 0 0 
		19 0 0 0 0 0 0 0 0 0 0 0 0 0 0 0 0 0 0 0 0 19 0 0 0 0 0 0 0 0 0 0 0 0 0 0 0 0 16 0 0 
		20 0 0 0 0 0 0 0 0 0 0 0 0 0 0 0 0 0 0 0 0 0 0 0 25 0 0 0 0 0 0 0 0 0 0 0 13 0 0 20 0 
		21 0 0 0 0 0 0 0 0 0 0 0 0 0 0 0 0 0 0 0 0 0 0 0 0 0 0 0 0 0 0 0 0 0 0 0 0 12 0 0 0 
		22 0 0 0 0 0 0 0 0 0 0 0 0 0 0 0 0 0 0 0 0 0 0 0 0 15 0 0 0 20 0 11 10 0 0 0 0 0 0 0 0 
		23 0 0 0 0 0 0 0 0 0 0 0 0 0 0 0 0 0 0 0 0 0 0 0 0 0 0 0 0 0 0 19 0 0 0 0 19 0 0 0 11 
		24 0 0 0 0 0 0 0 0 0 0 0 0 0 0 0 0 0 0 0 0 0 0 0 0 0 0 0 0 0 0 0 0 0 0 0 0 0 0 0 0 
		25 0 0 0 0 0 0 0 0 0 0 0 0 0 0 0 0 0 0 0 0 0 0 0 0 0 0 0 0 0 0 0 0 0 23 0 0 0 0 0 0 
		26 0 0 0 0 0 0 0 0 0 0 0 0 0 0 0 0 0 0 0 0 0 0 0 0 0 0 0 0 0 0 0 0 0 0 0 0 0 0 18 0 
		27 0 0 0 0 0 0 0 0 0 0 0 0 0 0 0 0 0 0 0 0 0 0 0 0 0 0 0 0 0 0 0 0 0 0 0 0 0 0 0 0 
		28 0 0 0 0 0 0 0 0 0 0 0 0 0 0 0 0 0 0 0 0 0 0 0 0 0 0 0 0 0 0 0 15 0 0 0 0 0 0 0 0 
		29 0 0 0 0 0 0 0 0 0 0 0 0 0 0 0 0 0 0 0 0 0 0 0 0 0 0 0 0 0 0 0 22 0 19 0 0 0 0 0 0 
		30 0 0 0 0 0 0 0 0 0 0 0 0 0 0 0 0 0 0 0 0 0 0 0 0 0 0 0 0 0 0 0 0 0 0 0 0 0 0 0 0 
		31 0 0 0 0 0 0 0 0 0 0 0 0 0 0 0 0 0 0 0 0 0 0 0 0 0 0 0 0 0 0 0 0 0 0 0 0 0 0 0 0 
		32 0 0 0 0 0 0 0 0 0 0 0 0 0 0 0 0 0 0 0 0 0 0 0 0 0 0 0 0 0 0 0 0 0 0 0 0 0 0 0 0 
		33 0 0 0 0 0 0 0 0 0 0 0 0 0 0 0 0 0 0 0 0 0 0 0 0 0 0 0 0 0 0 0 0 0 0 0 0 0 0 0 0 
		34 0 0 0 0 0 0 0 0 0 0 0 0 0 0 0 0 0 0 0 0 0 0 0 0 0 0 0 0 0 0 0 0 0 0 0 0 0 0 0 0 
		35 0 0 0 0 0 0 0 0 0 0 0 0 0 0 0 0 0 0 0 0 0 0 0 0 0 0 0 0 0 0 0 0 0 0 0 0 0 0 0 16 
		36 0 0 0 0 0 0 0 0 0 0 0 0 0 0 0 0 0 0 0 0 0 0 0 0 0 0 0 0 0 0 0 0 0 0 0 0 0 0 0 0 
		37 0 0 0 0 0 0 0 0 0 0 0 0 0 0 0 0 0 0 0 0 0 0 0 0 0 0 0 0 0 0 0 0 0 0 0 0 0 0 0 0 
		38 0 0 0 0 0 0 0 0 0 0 0 0 0 0 0 0 0 0 0 0 0 0 0 0 0 0 0 0 0 0 0 0 0 0 0 0 0 0 0 0 
		39 0 0 0 0 0 0 0 0 0 0 0 0 0 0 0 0 0 0 0 0 0 0 0 0 0 0 0 0 0 0 0 0 0 0 0 0 0 0 0 0 
;
param bs:	 0 1 2 3 4 5 6 7 8 9 10 11 12 13 14 15 16 17 18 19 20 21 22 23 24 25 26 27 28 29 30 31 32 33 34 35 36 37 38 39 40 41 42 43 44 45 46 47 48 49 50 51 52 53 54 55 56 57 58 59 60 61 62 63 64 65 66 67 68 69 70 71 72 73 74 75 76 77 78 79 80 81 82 83 := 
		0 0 0 0 0 0 0 0 0 0 40 0 0 0 34 0 0 0 0 0 32 0 0 0 0 0 0 0 0 0 0 35 0 0 0 0 0 0 0 0 25 0 0 0 0 0 0 0 0 0 0 0 0 0 0 0 0 22 22 0 0 0 0 0 0 0 25 0 0 35 0 0 0 0 0 0 0 0 35 24 21 0 0 0 0 
		1 0 0 0 0 0 0 0 0 0 0 0 0 0 0 0 40 0 0 0 0 0 38 0 0 0 0 0 0 0 0 28 0 0 0 0 0 0 0 0 0 0 0 0 29 0 0 31 0 0 0 23 0 0 0 0 0 0 0 0 29 0 0 0 0 0 0 0 0 0 0 0 0 25 0 0 0 34 36 0 0 29 0 0 0 
		2 0 0 0 0 36 0 0 0 0 0 0 0 0 0 0 0 0 0 0 0 0 0 20 0 0 0 0 0 23 0 0 0 0 0 0 0 31 0 22 0 0 0 0 0 0 0 0 0 0 0 0 25 0 0 0 0 0 0 0 0 21 0 27 0 0 0 0 0 0 0 40 0 0 36 0 29 0 0 0 0 0 0 0 0 
		3 0 0 0 0 0 0 0 0 0 0 0 0 0 0 0 0 0 0 0 0 0 0 0 0 0 0 0 0 23 0 31 0 0 0 39 0 0 0 0 0 0 31 0 0 20 0 0 22 31 0 0 0 0 0 0 0 0 0 0 0 0 0 0 0 0 0 0 0 0 0 0 0 0 0 0 0 0 0 0 35 0 23 36 0 
		4 0 0 36 0 0 0 0 0 0 0 0 0 0 0 0 0 0 0 0 0 0 33 0 0 0 0 0 0 0 0 26 0 0 0 0 37 0 0 0 0 0 0 0 0 37 0 0 0 0 0 25 0 0 0 0 0 0 0 0 0 0 33 21 0 0 0 0 0 0 0 0 0 0 0 0 0 0 0 0 22 0 20 0 0 
		5 0 0 0 0 0 0 0 0 0 0 0 0 0 0 0 0 0 0 28 36 0 0 40 0 0 30 0 0 0 0 0 0 0 0 23 0 0 25 0 0 0 20 0 0 0 0 0 0 0 39 0 0 0 0 0 0 0 0 0 0 0 0 0 0 0 0 0 0 0 0 0 0 0 0 0 0 0 0 0 0 0 0 0 0 
		6 0 0 0 0 0 0 0 0 0 0 0 0 34 0 0 0 22 0 0 0 0 0 0 0 0 0 0 0 28 0 0 0 0 0 0 0 0 0 0 23 20 0 0 0 38 32 0 0 0 0 0 0 0 0 0 0 0 0 38 0 0 0 0 0 0 0 0 0 0 0 22 0 0 38 0 0 0 0 0 0 0 37 30 0 
		7 0 0 0 0 0 0 0 0 0 0 0 0 0 0 0 0 0 31 0 0 0 0 0 0 0 0 0 23 0 0 35 0 0 23 20 0 0 0 32 0 0 0 0 0 0 0 26 0 0 0 0 0 0 0 0 0 0 33 0 0 0 0 0 0 0 37 0 0 0 0 0 0 0 28 0 28 0 0 0 0 0 0 0 0 
		8 0 0 0 0 0 0 0 0 0 0 0 40 0 0 0 0 0 0 0 23 0 22 0 0 0 0 0 0 0 40 0 0 0 28 26 0 0 0 21 0 0 40 0 0 0 0 32 32 0 0 0 0 0 0 0 0 37 0 0 27 0 0 0 0 0 0 0 0 0 0 0 0 0 0 0 0 0 28 0 0 0 0 0 0 
		9 40 0 0 0 0 0 0 0 0 0 0 0 0 0 0 28 0 36 0 0 0 0 34 0 31 0 0 31 0 27 36 0 0 0 0 0 0 0 38 0 0 0 0 0 0 0 0 0 0 27 0 0 0 0 0 0 0 0 0 0 0 0 0 0 0 0 26 0 0 0 24 0 33 39 0 0 0 0 0 0 35 0 0 0 
		10 0 0 0 0 0 0 0 0 0 0 0 0 0 0 0 0 0 0 0 0 0 0 0 0 0 0 0 0 0 0 0 0 0 0 0 0 24 0 0 0 26 0 0 0 0 0 0 0 0 0 0 0 0 0 0 0 0 0 0 0 0 0 0 0 33 0 0 0 0 27 0 0 30 0 0 34 0 0 0 0 0 0 0 0 
		11 0 0 0 0 0 0 0 0 40 0 0 0 0 0 0 0 0 0 26 38 0 0 0 0 0 0 0 22 0 0 0 0 0 23 0 0 0 0 0 0 0 0 33 0 0 0 0 0 0 0 0 0 0 0 0 0 0 0 0 0 0 0 0 0 0 0 0 0 0 0 0 0 0 0 0 0 0 0 0 30 0 25 0 0 
		12 0 0 0 0 0 0 34 0 0 0 0 0 0 0 0 0 0 0 0 0 0 0 0 0 0 0 0 0 0 0 0 0 0 0 0 0 0 0 0 40 22 0 0 0 0 0 0 0 0 0 0 0 30 0 0 0 33 0 0 0 31 0 0 0 0 0 0 0 0 0 0 0 0 33 0 0 0 0 0 0 0 0 0 36 
		13 34 0 0 0 0 0 0 0 0 0 0 0 0 0 0 0 0 0 0 0 0 0 0 0 0 0 0 0 0 0 0 0 0 0 36 0 0 0 0 0 0 0 0 0 0 0 0 28 0 34 0 0 31 0 0 0 0 0 0 0 0 0 0 0 0 0 0 0 0 0 0 0 0 0 0 0 0 23 0 0 20 0 0 0 
		14 0 0 0 0 0 0 0 0 0 0 0 0 0 0 0 0 0 0 0 0 31 0 0 0 0 0 0 40 0 0 0 0 0 0 0 0 0 0 33 0 0 0 0 0 0 0 0 0 0 0 0 0 0 0 0 0 0 0 0 0 0 0 0 20 0 0 0 0 0 0 0 0 0 0 0 0 0 0 0 0 0 0 0 23 
		15 0 40 0 0 0 0 0 0 0 28 0 0 0 0 0 0 0 0 0 0 40 0 0 0 0 0 0 0 0 0 0 0 0 0 0 27 0 0 35 0 0 0 0 39 0 0 0 0 0 0 0 31 0 0 0 0 0 0 23 0 0 32 0 29 0 0 0 0 0 0 0 0 0 0 0 35 31 0 0 0 0 0 0 0 
		16 0 0 0 0 0 0 22 0 0 0 0 0 0 0 0 0 0 0 0 0 0 40 0 0 0 0 0 0 0 0 0 0 0 0 0 0 0 20 0 0 37 0 0 0 34 0 0 0 0 0 0 0 35 0 0 0 0 0 0 0 0 26 0 0 20 0 0 0 0 0 0 0 0 0 39 0 0 0 0 0 0 0 0 0 
		17 0 0 0 0 0 0 0 31 0 36 0 0 0 0 0 0 0 0 0 0 0 0 0 0 0 0 0 33 35 0 0 0 0 0 0 0 0 0 0 0 0 0 0 0 0 0 0 0 0 0 0 0 0 0 0 0 0 0 0 0 0 0 0 0 0 0 0 0 0 0 0 0 0 0 0 0 0 0 0 0 0 0 0 0 
		18 0 0 0 0 0 28 0 0 0 0 0 26 0 0 0 0 0 0 0 23 0 0 0 0 0 37 0 30 0 0 0 0 0 0 0 0 0 0 0 0 0 0 0 0 0 0 0 26 0 0 0 0 0 0 0 0 0 0 0 0 0 0 0 0 0 0 0 0 0 0 0 0 0 0 0 0 0 0 0 0 0 0 0 0 
		19 32 0 0 0 0 36 0 0 23 0 0 38 0 0 0 0 0 0 23 0 0 0 25 0 0 0 0 0 0 0 0 0 37 0 21 0 0 27 0 0 0 0 0 0 0 0 0 0 0 0 0 0 0 0 0 0 36 0 0 0 0 0 0 0 0 24 0 0 37 0 0 0 0 0 0 0 0 0 0 0 0 20 0 0 
		20 0 0 0 0 0 0 0 0 0 0 0 0 0 0 31 40 0 0 0 0 0 32 0 0 0 0 0 0 0 36 30 0 0 0 0 0 0 0 32 29 0 0 0 0 0 0 0 0 0 0 0 0 0 26 0 34 0 23 0 0 0 39 0 0 0 0 0 0 35 0 0 0 28 0 0 36 29 0 0 0 0 0 0 39 
		21 0 38 0 0 33 0 0 0 22 0 0 0 0 0 0 0 40 0 0 0 32 0 0 0 0 0 0 0 0 0 0 0 0 0 0 0 0 0 0 0 0 0 0 20 0 40 0 0 0 0 0 0 40 38 0 0 0 0 0 0 0 0 0 0 28 0 0 0 0 0 0 0 0 0 0 0 0 0 35 0 0 24 0 0 
		22 0 0 20 0 0 40 0 0 0 34 0 0 0 0 0 0 0 0 0 25 0 0 0 0 0 0 0 36 0 0 28 0 0 0 0 0 0 0 0 0 0 0 0 0 0 0 0 0 0 0 35 0 0 0 0 0 0 0 0 23 0 0 0 0 0 0 0 0 0 0 0 0 0 0 0 0 0 0 0 0 0 0 0 0 
		23 0 0 0 0 0 0 0 0 0 0 0 0 0 0 0 0 0 0 0 0 0 0 0 0 0 0 0 0 0 0 29 0 0 0 0 0 0 0 0 0 26 0 0 0 34 0 0 0 25 0 0 0 0 0 30 0 0 0 0 0 0 0 0 0 0 39 0 0 0 0 0 0 28 28 0 0 0 36 0 36 0 32 0 0 
		24 0 0 0 0 0 0 0 0 0 31 0 0 0 0 0 0 0 0 0 0 0 0 0 0 0 0 0 0 20 0 0 0 0 0 0 0 0 0 21 34 0 0 0 0 0 0 0 0 0 0 0 39 0 0 0 0 0 0 0 0 0 20 0 0 0 0 0 0 0 0 0 0 0 0 0 0 0 0 0 0 0 0 0 0 
		25 0 0 0 0 0 30 0 0 0 0 0 0 0 0 0 0 0 0 37 0 0 0 0 0 0 0 0 0 0 0 0 0 34 0 0 0 0 0 40 0 0 0 0 0 0 0 0 0 0 25 0 0 0 0 0 0 0 40 0 0 0 0 0 0 0 0 0 0 0 0 0 40 0 0 0 0 0 0 0 0 0 0 0 0 
		26 0 0 0 0 0 0 0 0 0 0 0 0 0 0 0 0 0 0 0 0 0 0 0 0 0 0 0 0 0 0 0 0 23 0 38 0 0 0 0 0 0 0 0 0 0 24 0 0 0 0 0 0 0 0 0 0 30 0 0 0 0 0 0 0 0 0 0 0 0 0 0 0 0 0 0 31 0 31 0 0 0 0 0 0 
		27 0 0 0 0 0 0 0 23 0 31 0 22 0 0 40 0 0 33 30 0 0 0 36 0 0 0 0 0 33 0 0 0 0 0 0 0 0 0 0 0 0 0 0 0 0 0 0 0 0 0 0 0 0 0 0 0 0 0 0 30 0 0 0 0 0 0 0 0 0 0 33 0 0 0 0 0 0 0 0 0 0 0 0 0 
		28 0 0 23 23 0 0 28 0 0 0 0 0 0 0 0 0 0 35 0 0 0 0 0 0 20 0 0 33 0 0 0 0 0 0 0 0 0 39 0 0 0 0 0 0 0 0 0 31 0 0 0 0 0 0 0 0 0 0 0 0 0 0 0 0 36 0 31 0 0 0 0 0 0 0 0 0 34 0 0 0 0 0 0 0 
		29 0 0 0 0 0 0 0 0 40 27 0 0 0 0 0 0 0 0 0 0 36 0 0 0 0 0 0 0 0 0 0 0 0 0 0 0 21 0 0 0 0 0 0 0 0 0 0 0 0 0 0 0 0 0 0 0 0 0 0 0 0 0 0 0 0 0 0 0 0 37 40 0 0 0 0 0 0 0 0 0 0 0 0 0 
		30 35 28 0 31 26 0 0 35 0 36 0 0 0 0 0 0 0 0 0 0 30 0 28 29 0 0 0 0 0 0 0 0 0 0 37 21 0 0 0 0 31 39 0 0 0 0 0 0 0 0 30 0 0 0 23 0 30 0 26 0 0 27 0 0 0 0 33 0 0 0 0 0 24 28 0 0 0 0 0 0 0 40 0 0 
		31 0 0 0 0 0 0 0 0 0 0 0 0 0 0 0 0 0 0 0 0 0 0 0 0 0 0 0 0 0 0 0 0 34 0 0 0 0 0 0 0 0 0 0 0 0 0 0 0 0 29 0 0 0 0 0 0 0 0 0 0 0 0 0 0 0 0 0 0 0 0 0 0 0 0 0 0 0 0 0 0 0 0 0 0 
		32 0 0 0 0 0 0 0 0 0 0 0 0 0 0 0 0 0 0 0 37 0 0 0 0 0 34 23 0 0 0 0 34 0 0 0 0 0 0 0 0 34 0 0 0 0 0 0 0 0 0 0 0 0 0 34 0 0 0 0 0 37 0 0 0 0 0 0 0 0 0 0 28 0 0 0 0 0 0 0 0 0 0 0 0 
		33 0 0 0 0 0 0 0 23 28 0 0 23 0 0 0 0 0 0 0 0 0 0 0 0 0 0 0 0 0 0 0 0 0 0 0 0 0 0 0 0 0 40 0 0 0 0 0 0 0 32 0 0 0 0 0 0 0 0 0 37 0 0 0 0 0 0 0 0 33 0 0 33 0 0 0 0 0 0 0 0 0 0 0 0 
		34 0 0 0 39 0 23 0 20 26 0 0 0 0 36 0 0 0 0 0 21 0 0 0 0 0 0 38 0 0 0 37 0 0 0 0 0 0 0 0 0 0 0 0 0 0 0 0 0 0 0 0 0 23 0 0 0 0 0 0 0 0 0 0 0 0 0 0 0 0 0 0 0 0 0 0 0 0 28 0 0 0 0 36 0 
		35 0 0 0 0 37 0 0 0 0 0 0 0 0 0 0 27 0 0 0 0 0 0 0 0 0 0 0 0 0 0 21 0 0 0 0 0 23 0 0 29 0 0 0 24 0 34 0 0 0 0 0 35 0 0 0 0 0 0 0 0 0 0 0 27 0 0 0 0 0 0 0 0 0 0 0 0 0 0 0 0 0 0 0 39 
		36 0 0 31 0 0 0 0 0 0 0 24 0 0 0 0 0 0 0 0 0 0 0 0 0 0 0 0 0 0 21 0 0 0 0 0 23 0 0 0 0 0 0 0 0 0 0 0 0 0 0 0 0 0 0 0 0 0 0 0 38 0 0 39 0 0 0 0 39 0 29 0 0 0 0 0 0 0 0 0 0 0 0 0 0 
		37 0 0 0 0 0 25 0 0 0 0 0 0 0 0 0 0 20 0 0 27 0 0 0 0 0 0 0 0 39 0 0 0 0 0 0 0 0 0 0 39 0 0 0 0 0 0 0 0 0 0 33 0 0 0 0 0 0 0 0 0 0 0 33 0 0 34 0 0 0 33 0 0 0 0 0 0 32 0 0 0 0 0 0 0 
		38 0 0 22 0 0 0 0 32 21 38 0 0 0 0 33 35 0 0 0 0 32 0 0 0 21 40 0 0 0 0 0 0 0 0 0 0 0 0 0 0 0 0 0 0 0 0 0 0 0 0 24 35 0 0 0 0 0 0 0 23 0 0 0 0 0 0 32 0 0 0 0 0 0 0 0 0 0 0 0 0 39 0 0 0 
		39 25 0 0 0 0 0 23 0 0 0 0 0 40 0 0 0 0 0 0 0 29 0 0 0 34 0 0 0 0 0 0 0 0 0 0 29 0 39 0 0 25 0 0 0 0 0 0 0 0 0 0 33 0 0 23 0 0 0 0 0 0 0 0 0 30 0 0 0 0 0 0 0 0 26 0 0 0 0 0 0 29 0 0 0 
		40 0 0 0 0 0 0 20 0 0 0 26 0 22 0 0 0 37 0 0 0 0 0 0 26 0 0 0 0 0 0 31 0 34 0 0 0 0 0 0 25 0 0 0 0 0 0 0 0 0 0 0 0 35 36 0 0 0 0 0 0 0 37 0 0 25 0 0 0 0 0 0 0 0 0 0 0 0 0 0 30 40 0 0 0 
		41 0 0 0 31 0 20 0 0 40 0 0 0 0 0 0 0 0 0 0 0 0 0 0 0 0 0 0 0 0 0 39 0 0 40 0 0 0 0 0 0 0 0 0 0 0 0 0 0 0 0 0 0 0 0 33 0 33 0 0 0 0 0 0 0 0 31 0 0 0 0 0 0 0 0 0 0 0 0 0 0 0 0 0 0 
		42 0 0 0 0 0 0 0 0 0 0 0 33 0 0 0 0 0 0 0 0 0 0 0 0 0 0 0 0 0 0 0 0 0 0 0 0 0 0 0 0 0 0 0 0 0 0 0 31 0 0 0 0 25 0 0 0 0 0 0 0 0 0 0 0 0 38 0 0 25 0 0 0 0 0 0 0 0 0 0 0 21 0 0 0 
		43 0 29 0 0 0 0 0 0 0 0 0 0 0 0 0 39 0 0 0 0 0 20 0 0 0 0 0 0 0 0 0 0 0 0 0 24 0 0 0 0 0 0 0 0 0 0 0 0 0 0 0 23 0 0 0 0 0 0 0 0 0 30 0 21 0 24 0 0 0 23 0 33 34 0 0 24 0 20 0 0 0 0 0 0 
		44 0 0 0 20 37 0 38 0 0 0 0 0 0 0 0 0 34 0 0 0 0 0 0 34 0 0 0 0 0 0 0 0 0 0 0 0 0 0 0 0 0 0 0 0 0 0 0 0 0 0 0 0 0 0 0 0 0 0 0 0 0 0 0 0 22 0 0 0 0 0 0 0 0 28 0 0 0 0 0 0 0 32 0 0 
		45 0 0 0 0 0 0 32 0 0 0 0 0 0 0 0 0 0 0 0 0 0 40 0 0 0 0 24 0 0 0 0 0 0 0 0 34 0 0 0 0 0 0 0 0 0 0 30 0 0 0 0 0 0 0 0 0 0 0 0 0 0 0 0 0 0 0 0 0 0 0 0 0 0 39 22 29 0 0 0 0 0 36 0 0 
		46 0 31 0 0 0 0 0 26 32 0 0 0 0 0 0 0 0 0 0 0 0 0 0 0 0 0 0 0 0 0 0 0 0 0 0 0 0 0 0 0 0 0 0 0 0 30 0 0 0 0 0 0 0 0 0 0 0 0 0 0 0 0 0 0 0 0 0 0 0 0 0 0 0 0 26 0 0 0 0 0 0 30 0 0 
		47 0 0 0 22 0 0 0 0 32 0 0 0 0 28 0 0 0 0 26 0 0 0 0 0 0 0 0 0 31 0 0 0 0 0 0 0 0 0 0 0 0 0 31 0 0 0 0 0 0 0 0 0 0 0 0 0 36 0 0 0 0 0 0 0 0 0 0 0 0 0 0 37 34 0 0 0 0 0 0 0 0 0 0 0 
		48 0 0 0 31 0 0 0 0 0 0 0 0 0 0 0 0 0 0 0 0 0 0 0 25 0 0 0 0 0 0 0 0 0 0 0 0 0 0 0 0 0 0 0 0 0 0 0 0 0 0 0 0 0 0 0 0 0 0 0 0 0 0 0 0 0 0 0 0 32 0 0 0 0 38 0 0 0 0 0 0 0 22 0 0 
		49 0 0 0 0 0 39 0 0 0 27 0 0 0 34 0 0 0 0 0 0 0 0 0 0 0 25 0 0 0 0 0 29 0 32 0 0 0 0 0 0 0 0 0 0 0 0 0 0 0 0 0 0 0 0 0 0 0 0 0 0 0 0 0 0 0 0 25 0 0 0 0 37 0 0 0 0 0 0 0 0 0 0 0 0 
		50 0 23 0 0 25 0 0 0 0 0 0 0 0 0 0 0 0 0 0 0 0 0 35 0 0 0 0 0 0 0 30 0 0 0 0 0 0 33 24 0 0 0 0 0 0 0 0 0 0 0 0 0 0 0 0 0 0 0 0 0 0 0 39 0 0 0 0 0 0 0 0 0 0 0 0 0 0 0 0 0 0 29 0 0 
		51 0 0 25 0 0 0 0 0 0 0 0 0 0 0 0 31 0 0 0 0 0 0 0 0 39 0 0 0 0 0 0 0 0 0 0 35 0 0 35 33 0 0 0 23 0 0 0 0 0 0 0 0 0 0 0 0 0 0 34 0 0 0 36 0 0 0 0 0 0 0 0 0 0 0 0 0 0 0 0 0 0 37 0 0 
		52 0 0 0 0 0 0 0 0 0 0 0 0 30 31 0 0 35 0 0 0 0 40 0 0 0 0 0 0 0 0 0 0 0 0 23 0 0 0 0 0 35 0 25 0 0 0 0 0 0 0 0 0 0 0 24 0 0 0 0 0 0 0 0 0 0 0 0 0 0 0 0 0 0 0 0 0 0 0 32 38 0 0 25 0 
		53 0 0 0 0 0 0 0 0 0 0 0 0 0 0 0 0 0 0 0 0 26 38 0 0 0 0 0 0 0 0 0 0 0 0 0 0 0 0 0 0 36 0 0 0 0 0 0 0 0 0 0 0 0 0 0 0 0 0 0 0 0 0 0 0 0 0 0 0 0 0 0 0 0 0 0 0 0 0 0 0 0 0 0 0 
		54 0 0 0 0 0 0 0 0 0 0 0 0 0 0 0 0 0 0 0 0 0 0 0 30 0 0 0 0 0 0 23 0 34 0 0 0 0 0 0 23 0 33 0 0 0 0 0 0 0 0 0 0 24 0 0 26 0 34 0 36 0 0 0 0 38 0 0 0 0 0 0 0 0 0 0 0 0 0 0 0 0 0 0 0 
		55 0 0 0 0 0 0 0 0 0 0 0 0 0 0 0 0 0 0 0 0 34 0 0 0 0 0 0 0 0 0 0 0 0 0 0 0 0 0 0 0 0 0 0 0 0 0 0 0 0 0 0 0 0 0 26 0 0 0 0 0 0 0 0 0 28 0 0 0 0 0 0 0 0 24 0 0 29 0 0 0 0 0 0 0 
		56 22 0 0 0 0 0 0 0 37 0 0 0 33 0 0 0 0 0 0 36 0 0 0 0 0 0 30 0 0 0 30 0 0 0 0 0 0 0 0 0 0 33 0 0 0 0 0 36 0 0 0 0 0 0 0 0 0 0 0 0 38 0 0 0 0 0 0 0 0 0 0 0 0 0 0 0 0 0 0 0 0 0 0 0 
		57 22 0 0 0 0 0 0 33 0 0 0 0 0 0 0 0 0 0 0 0 23 0 0 0 0 40 0 0 0 0 0 0 0 0 0 0 0 0 0 0 0 0 0 0 0 0 0 0 0 0 0 0 0 0 34 0 0 0 0 0 0 0 0 0 0 0 0 0 0 0 0 0 0 0 0 30 0 0 0 37 34 24 0 0 
		58 0 0 0 0 0 0 38 0 0 0 0 0 0 0 0 23 0 0 0 0 0 0 0 0 0 0 0 0 0 0 26 0 0 0 0 0 0 0 0 0 0 0 0 0 0 0 0 0 0 0 0 34 0 0 0 0 0 0 0 0 0 0 0 0 0 0 35 0 0 0 0 0 0 0 0 0 0 0 0 0 0 0 0 35 
		59 0 29 0 0 0 0 0 0 27 0 0 0 0 0 0 0 0 0 0 0 0 0 23 0 0 0 0 30 0 0 0 0 0 37 0 0 38 0 23 0 0 0 0 0 0 0 0 0 0 0 0 0 0 0 36 0 0 0 0 0 0 0 0 0 0 0 0 0 0 31 0 25 0 0 0 0 0 0 0 0 0 0 0 0 
		60 0 0 21 0 0 0 0 0 0 0 0 0 31 0 0 0 0 0 0 0 0 0 0 0 0 0 0 0 0 0 0 0 37 0 0 0 0 0 0 0 0 0 0 0 0 0 0 0 0 0 0 0 0 0 0 0 38 0 0 0 0 0 0 0 27 0 0 0 0 0 0 0 0 0 0 0 0 0 0 0 0 0 0 0 
		61 0 0 0 0 33 0 0 0 0 0 0 0 0 0 0 32 26 0 0 0 39 0 0 0 20 0 0 0 0 0 27 0 0 0 0 0 0 0 0 0 37 0 0 30 0 0 0 0 0 0 0 0 0 0 0 0 0 0 0 0 0 0 0 0 36 35 0 0 0 0 0 0 0 0 0 21 29 0 0 38 0 22 0 0 
		62 0 0 27 0 21 0 0 0 0 0 0 0 0 0 0 0 0 0 0 0 0 0 0 0 0 0 0 0 0 0 0 0 0 0 0 0 39 33 0 0 0 0 0 0 0 0 0 0 0 0 39 36 0 0 0 0 0 0 0 0 0 0 0 0 0 20 0 0 0 0 0 0 0 0 0 0 0 0 0 0 0 0 0 0 
		63 0 0 0 0 0 0 0 0 0 0 0 0 0 0 20 29 0 0 0 0 0 0 0 0 0 0 0 0 0 0 0 0 0 0 0 27 0 0 0 0 0 0 0 21 0 0 0 0 0 0 0 0 0 0 0 0 0 0 0 0 0 0 0 0 0 0 0 0 0 0 0 0 0 0 0 0 0 0 0 0 0 0 0 0 
		64 0 0 0 0 0 0 0 0 0 0 33 0 0 0 0 0 20 0 0 0 0 28 0 0 0 0 0 0 36 0 0 0 0 0 0 0 0 0 0 30 25 0 0 0 22 0 0 0 0 0 0 0 0 0 38 28 0 0 0 0 27 36 0 0 0 0 0 0 0 0 0 0 0 0 0 0 0 0 0 0 0 0 39 0 
		65 25 0 0 0 0 0 0 37 0 0 0 0 0 0 0 0 0 0 0 24 0 0 0 39 0 0 0 0 0 0 0 0 0 0 0 0 0 34 0 0 0 31 38 24 0 0 0 0 0 0 0 0 0 0 0 0 0 0 0 0 0 35 20 0 0 0 0 0 40 0 0 0 0 36 0 0 0 0 0 0 0 35 23 0 
		66 0 0 0 0 0 0 0 0 0 26 0 0 0 0 0 0 0 0 0 0 0 0 0 0 0 0 0 0 31 0 33 0 0 0 0 0 0 0 32 0 0 0 0 0 0 0 0 0 0 25 0 0 0 0 0 0 0 0 35 0 0 0 0 0 0 0 0 0 0 0 0 0 0 0 0 0 0 0 0 0 0 0 0 0 
		67 0 0 0 0 0 0 0 0 0 0 0 0 0 0 0 0 0 0 0 0 0 0 0 0 0 0 0 0 0 0 0 0 0 0 0 0 39 0 0 0 0 0 0 0 0 0 0 0 0 0 0 0 0 0 0 0 0 0 0 0 0 0 0 0 0 0 0 0 0 0 0 0 0 0 0 0 0 0 0 0 0 0 0 0 
		68 35 0 0 0 0 0 0 0 0 0 0 0 0 0 0 0 0 0 0 37 35 0 0 0 0 0 0 0 0 0 0 0 0 33 0 0 0 0 0 0 0 0 25 0 0 0 0 0 32 0 0 0 0 0 0 0 0 0 0 0 0 0 0 0 0 40 0 0 0 0 0 0 0 0 0 0 0 0 0 0 0 0 0 0 
		69 0 0 0 0 0 0 0 0 0 0 27 0 0 0 0 0 0 0 0 0 0 0 0 0 0 0 0 0 0 37 0 0 0 0 0 0 29 33 0 0 0 0 0 23 0 0 0 0 0 0 0 0 0 0 0 0 0 0 0 31 0 0 0 0 0 0 0 0 0 0 0 0 0 0 0 0 0 0 0 0 0 0 0 0 
		70 0 0 40 0 0 0 22 0 0 24 0 0 0 0 0 0 0 0 0 0 0 0 0 0 0 0 0 33 0 40 0 0 0 0 0 0 0 0 0 0 0 0 0 0 0 0 0 0 0 0 0 0 0 0 0 0 0 0 0 0 0 0 0 0 0 0 0 0 0 0 0 0 33 0 0 0 0 0 0 0 0 0 0 0 
		71 0 0 0 0 0 0 0 0 0 0 0 0 0 0 0 0 0 0 0 0 0 0 0 0 0 40 0 0 0 0 0 0 28 33 0 0 0 0 0 0 0 0 0 33 0 0 0 37 0 37 0 0 0 0 0 0 0 0 0 25 0 0 0 0 0 0 0 0 0 0 0 0 0 0 0 0 0 0 0 0 0 0 0 0 
		72 0 25 0 0 0 0 0 0 0 33 30 0 0 0 0 0 0 0 0 0 28 0 0 28 0 0 0 0 0 0 24 0 0 0 0 0 0 0 0 0 0 0 0 34 0 0 0 34 0 0 0 0 0 0 0 0 0 0 0 0 0 0 0 0 0 0 0 0 0 0 33 0 0 0 0 0 0 0 0 0 0 29 25 0 
		73 0 0 36 0 0 0 38 28 0 39 0 0 33 0 0 0 0 0 0 0 0 0 0 28 0 0 0 0 0 0 28 0 0 0 0 0 0 0 0 26 0 0 0 0 28 39 0 0 38 0 0 0 0 0 0 24 0 0 0 0 0 0 0 0 0 36 0 0 0 0 0 0 0 0 0 0 0 0 0 0 0 0 0 0 
		74 0 0 0 0 0 0 0 0 0 0 0 0 0 0 0 0 39 0 0 0 0 0 0 0 0 0 0 0 0 0 0 0 0 0 0 0 0 0 0 0 0 0 0 0 0 22 26 0 0 0 0 0 0 0 0 0 0 0 0 0 0 0 0 0 0 0 0 0 0 0 0 0 0 0 0 34 0 0 0 0 0 0 0 0 
		75 0 0 29 0 0 0 0 28 0 0 34 0 0 0 0 35 0 0 0 0 36 0 0 0 0 0 31 0 0 0 0 0 0 0 0 0 0 0 0 0 0 0 0 24 0 29 0 0 0 0 0 0 0 0 0 0 0 30 0 0 0 21 0 0 0 0 0 0 0 0 0 0 0 0 34 0 25 0 0 0 0 0 36 0 
		76 0 34 0 0 0 0 0 0 0 0 0 0 0 0 0 31 0 0 0 0 29 0 0 0 0 0 0 0 34 0 0 0 0 0 0 0 0 32 0 0 0 0 0 0 0 0 0 0 0 0 0 0 0 0 0 29 0 0 0 0 0 29 0 0 0 0 0 0 0 0 0 0 0 0 0 25 0 0 0 0 0 0 0 29 
		77 35 36 0 0 0 0 0 0 28 0 0 0 0 23 0 0 0 0 0 0 0 0 0 36 0 0 31 0 0 0 0 0 0 0 28 0 0 0 0 0 0 0 0 20 0 0 0 0 0 0 0 0 0 0 0 0 0 0 0 0 0 0 0 0 0 0 0 0 0 0 0 0 0 0 0 0 0 0 0 0 30 21 0 0 
		78 24 0 0 0 0 0 0 0 0 0 0 0 0 0 0 0 0 0 0 0 0 35 0 0 0 0 0 0 0 0 0 0 0 0 0 0 0 0 0 0 0 0 0 0 0 0 0 0 0 0 0 0 32 0 0 0 0 0 0 0 0 0 0 0 0 0 0 0 0 0 0 0 0 0 0 0 0 0 0 0 0 33 0 0 
		79 21 0 0 35 22 0 0 0 0 0 0 30 0 0 0 0 0 0 0 0 0 0 0 36 0 0 0 0 0 0 0 0 0 0 0 0 0 0 0 0 30 0 0 0 0 0 0 0 0 0 0 0 38 0 0 0 0 37 0 0 0 38 0 0 0 0 0 0 0 0 0 0 0 0 0 0 0 0 0 0 0 0 0 0 
		80 0 29 0 0 0 0 0 0 0 35 0 0 0 20 0 0 0 0 0 0 0 0 0 0 0 0 0 0 0 0 0 0 0 0 0 0 0 0 39 29 40 0 21 0 0 0 0 0 0 0 0 0 0 0 0 0 0 34 0 0 0 0 0 0 0 0 0 0 0 0 0 0 0 0 0 0 0 30 0 0 0 28 0 0 
		81 0 0 0 23 20 0 37 0 0 0 0 25 0 0 0 0 0 0 0 20 0 24 0 32 0 0 0 0 0 0 40 0 0 0 0 0 0 0 0 0 0 0 0 0 32 36 30 0 22 0 29 37 0 0 0 0 0 24 0 0 0 22 0 0 0 35 0 0 0 0 0 0 29 0 0 0 0 21 33 0 28 0 0 0 
		82 0 0 0 36 0 0 30 0 0 0 0 0 0 0 0 0 0 0 0 0 0 0 0 0 0 0 0 0 0 0 0 0 0 0 36 0 0 0 0 0 0 0 0 0 0 0 0 0 0 0 0 0 25 0 0 0 0 0 0 0 0 0 0 0 39 23 0 0 0 0 0 0 25 0 0 36 0 0 0 0 0 0 0 0 
		83 0 0 0 0 0 0 0 0 0 0 0 0 36 0 23 0 0 0 0 0 39 0 0 0 0 0 0 0 0 0 0 0 0 0 0 39 0 0 0 0 0 0 0 0 0 0 0 0 0 0 0 0 0 0 0 0 0 0 35 0 0 0 0 0 0 0 0 0 0 0 0 0 0 0 0 0 29 0 0 0 0 0 0 0 
;
